78
17
0 21 22 25 26 29 30 31 33 34 35 36 38 40 43 44 45 46 47 48 51 53 57 60 62 63 64 65 66 67 68 69 70 71 72 73 74 76 77
1 18 21 22 26 29 32 34 35 36 38 40 44 45 47 48 51 52 53 54 55 56 57 62 63 64 66 67 69 72 73 74 75 76
2 19 25 29 30 34 35 36 40 44 47 48 51 54 55 57 58 60 61 62 63 64 66 67 69 70 71 72 73 74 76 77
3 19 21 22 25 26 31 32 33 34 35 36 37 40 43 44 45 47 48 51 54 57 63 64 65 66 67 68 69 70 72 73 76
4 17 21 26 27 29 30 34 35 36 38 40 44 47 51 52 53 55 59 62 64 65 67 68 70 71 72 73 74 76
5 17 19 25 26 27 29 31 32 33 34 35 38 43 44 48 49 52 53 54 58 60 62 63 64 67 70 71 72 73 74 76
6 17 21 22 26 29 32 33 35 36 37 38 40 46 47 48 51 52 54 57 58 59 60 63 64 67 69 70 71 72 73
7 17 19 22 26 27 29 31 33 35 36 38 40 45 49 52 53 54 55 61 63 64 66 67 69 71 73 77
8 17 20 21 22 26 31 32 34 35 40 43 44 47 48 51 53 54 57 59 66 68 69 71 73 74
9 17 18 19 21 25 26 27 29 31 33 34 35 36 37 41 43 47 49 55 57 60 70 71 76 77
10 23 24 27 29 32 40 44 45 49 51 53 54 59 61 62 65 69 76
11 19 22 23 32 33 34 35 36 38 42 44 52 55 59 60 61 64 68 73
12 21 26 27 31 37 38 39 40 43 44 48 53 55 67 70 72 76
13 18 25 29 30 38 53 54 62 63 64 66 69 77
14 17 28 44 45 52 61 64 75
15 17 28 30 47 49 50 68 69
16 21 23 36 42 56 75
